<number of tasks>
25

<cycle time>
18

<task times>
1 4
2 3
3 9
4 5
5 9
6 4
7 8
8 7
9 5
10 1
11 3
12 1
13 5
14 3
15 5
16 3
17 13
18 5
19 2
20 3
21 7
22 5
23 3
24 8
25 4

<precedence relations>
1,3
2,3
3,4
4,5
4,8
5,6
6,7
6,10
7,11
7,12
8,9
8,11
9,10
9,13
11,13
12,15
13,14
14,16
14,19
14,20
15,17
15,22
16,18
17,18
17,23
18,25
19,22
20,21
20,25
21,22
21,24
23,25

<setup times forward>
4,8:1
5,8:1
6,7:1
6,8:1
6,10:1
7,9:1
7,12:1
8,5:1
8,6:1
8,9:1
8,12:1
8,15:1
9,7:1
9,10:1
9,11:1
9,17:1
9,23:1
10,12:1
10,13:1
10,14:1
10,15:1
10,16:1
10,21:1
10,24:1
11,9:1
11,12:1
11,13:1
11,15:1
12,8:1
12,10:1
12,11:1
12,19:1
12,20:1
13,10:1
13,17:1
13,23:1
14,10:1
14,17:1
14,19:1
14,20:1
14,23:1
15,8:1
15,10:1
15,11:1
15,17:1
15,19:1
15,20:1
15,22:1
16,10:1
16,17:1
16,18:1
16,19:1
16,20:1
16,22:1
16,23:1
17,9:1
17,13:1
17,14:1
17,16:1
17,21:1
17,24:1
18,21:1
18,24:1
19,12:1
19,15:1
19,16:1
19,21:1
19,24:1
20,12:1
20,15:1
20,16:1
20,21:1
21,10:1
21,17:1
21,18:1
21,19:1
21,22:1
21,23:1
21,25:1
22,16:1
22,24:1
23,9:1
23,13:1
23,14:1
23,16:1
23,21:1
23,24:1
24,10:1
24,17:1
24,18:1
24,19:1
24,22:1
24,23:1
24,25:1
25,21:1
25,24:1

<setup times backward>
5,8:1
6,8:1
9,7:1
9,8:1
9,11:1
9,17:1
9,23:1
12,7:1
12,8:1
12,10:1
12,11:1
12,19:1
12,20:1
13,7:1
13,8:1
13,10:1
13,11:1
13,17:1
13,23:1
14,7:1
14,8:1
14,10:1
14,11:1
14,17:1
14,23:1
15,7:1
15,8:1
15,10:1
15,11:1
15,19:1
15,20:1
16,7:1
16,8:1
16,10:1
16,11:1
16,17:1
16,19:1
16,20:1
16,22:1
16,23:1
21,7:1
21,8:1
21,10:1
21,11:1
21,17:1
21,18:1
21,19:1
21,20:1
21,23:1
21,25:1
24,7:1
24,8:1
24,10:1
24,11:1
24,17:1
24,18:1
24,19:1
24,20:1
24,22:1
24,23:1
24,25:1

<end>

<optimal SALBP-1 value>
8


<rand seed>
467321153

